NAME : random_8
COMMENT : 60 random nodes
TYPE : TSP
DIMENSION : 60
EDGE_WEIGHT_TYPE : EUC_2D
NODE_COORD_SECTION
1 47 814
2 592 510
3 362 302
4 480 98
5 746 933
6 937 26
7 522 162
8 878 930
9 829 567
10 682 30
11 523 301
12 337 820
13 172 647
14 418 39
15 174 350
16 1001 690
17 952 306
18 286 414
19 300 563
20 134 205
21 963 43
22 236 524
23 84 699
24 551 770
25 133 846
26 375 365
27 239 910
28 548 161
29 324 779
30 403 45
31 411 930
32 985 343
33 983 251
34 364 478
35 549 245
36 731 857
37 547 109
38 441 247
39 13 614
40 844 737
41 354 229
42 890 965
43 437 321
44 165 1001
45 526 642
46 823 940
47 525 600
48 37 855
49 531 199
50 490 319
51 272 173
52 611 974
53 219 499
54 967 625
55 388 721
56 915 256
57 797 897
58 569 528
59 103 361
60 538 554
EOF